nNurses = 175;
nHours = 29;
minHours = 6;
maxHours = 8;
maxConsec = 7;
maxPresence = 22;
demand = [7, 9, 14, 17, 15, 18, 14, 12, 15, 13, 11, 8, 10, 12, 10, 5, 9, 13, 10, 12, 15, 13, 13, 17, 20, 17, 13, 17, 16];
